0000000000000000
0000000000000000
0000000000000000
0001111110000000
0001111111000000
0000000001000000
0000000001000000
0000000001000000
0000000001000000
0000000001000000
0000000001000000
0000011111111110
0000000000000000
0000000000000000
0000000000000000
0000000000000000
